### IDP simulation
shell       mkdir COM_Box dumpTraj restartfiles

###### VARIABLES #######

variable    t equal 280.0
variable    dt equal 10.0
variable    dumpintrv equal 150000
variable    thermointrv equal 10000
variable    runtime equal 120000000

### Settings

variable     MassinGrams equal mass(all)/6.02e23
variable     VolumeinCC equal vol*1.0e-24
variable     Density equal v_MassinGrams/v_VolumeinCC

variable     shearrate equal 1e-8
variable     viscosityINatmfs equal -pxy/${shearrate}
variable     viscosityINPas equal v_viscosityINatmfs*101325*1e-15
variable     viscosityINcP equal v_viscosityINPas*1000
variable     PXYINatm equal -pxy
variable     PXYINPa equal v_PXYINatm*101325
variable     PXXINatm equal pxx
variable     PXXINPa equal v_PXXINatm*101325
variable     PYYINatm equal pyy
variable     PYYINPa equal v_PYYINatm*101325
variable     PZZINatm equal pzz
variable     PZZINPa equal v_PZZINatm*101325

units        real
dimension    3
boundary     p p p

atom_style  full
bond_style  harmonic
pair_style  ljlambda 0.1 0.0 35.0

dielectric  80.0

read_data   eqconf_V2.data

### pairwise coefficients below generated by PARAMBUILDER

bond_coeff          1   10.000000    3.800000

pair_coeff          1       1       0.200000   6.180    0.596471  24.720   0.000
pair_coeff          1       2       0.200000   6.050    0.258236  24.200   0.000
pair_coeff          1       3       0.200000   5.680    0.552354  22.720   0.000
pair_coeff          1       4       0.200000   5.930    0.552354  23.720   0.000
pair_coeff          1       5       0.200000   6.100    0.537648  24.400   0.000
pair_coeff          1       6       0.200000   5.340    0.545000  21.360   0.000
pair_coeff          1       7       0.200000   5.610    0.559707  22.440   0.000
pair_coeff          1       8       0.200000   6.180    0.618530  24.720   0.000
pair_coeff          1       9       0.200000   6.370    0.537648  25.480   0.000
pair_coeff          1      10       0.200000   6.320    0.706765  25.280   0.000
pair_coeff          1      11       0.200000   6.020    0.590589  24.080   0.000
pair_coeff          1      12       0.200000   5.870    0.637648  23.480   0.000
pair_coeff          1      13       0.200000   6.130    0.640589  24.520   0.000
pair_coeff          1      14       0.200000   5.880    0.405295  23.520   0.000
pair_coeff          1      15       0.200000   6.270    0.670000  25.080   0.000
pair_coeff          2       2       0.200000   5.920   -0.080000  23.680  35.000
pair_coeff          2       3       0.200000   5.550    0.214118  22.200   0.000
pair_coeff          2       4       0.200000   5.800    0.214118  23.200   0.000
pair_coeff          2       5       0.200000   5.970    0.199412  23.880   0.000
pair_coeff          2       6       0.200000   5.210    0.206765  20.840   0.000
pair_coeff          2       7       0.200000   5.480    0.221471  21.920   0.000
pair_coeff          2       8       0.200000   6.050    0.280294  24.200   0.000
pair_coeff          2       9       0.200000   6.240    0.199412  24.960  35.000
pair_coeff          2      10       0.200000   6.190    0.368529  24.760   0.000
pair_coeff          2      11       0.200000   5.890    0.252353  23.560   0.000
pair_coeff          2      12       0.200000   5.740    0.299412  22.960   0.000
pair_coeff          2      13       0.200000   6.000    0.302354  24.000   0.000
pair_coeff          2      14       0.200000   5.750    0.067060  23.000  35.000
pair_coeff          2      15       0.200000   6.140    0.331765  24.560   0.000
pair_coeff          3       3       0.200000   5.180    0.508236  20.720   0.000
pair_coeff          3       4       0.200000   5.430    0.508236  21.720   0.000
pair_coeff          3       5       0.200000   5.600    0.493530  22.400   0.000
pair_coeff          3       6       0.200000   4.840    0.500883  19.360   0.000
pair_coeff          3       7       0.200000   5.110    0.515589  20.440   0.000
pair_coeff          3       8       0.200000   5.680    0.574413  22.720   0.000
pair_coeff          3       9       0.200000   5.870    0.493530  23.480   0.000
pair_coeff          3      10       0.200000   5.820    0.662648  23.280   0.000
pair_coeff          3      11       0.200000   5.520    0.546472  22.080   0.000
pair_coeff          3      12       0.200000   5.370    0.593530  21.480   0.000
pair_coeff          3      13       0.200000   5.630    0.596471  22.520   0.000
pair_coeff          3      14       0.200000   5.380    0.361178  21.520   0.000
pair_coeff          3      15       0.200000   5.770    0.625883  23.080   0.000
pair_coeff          4       4       0.200000   5.680    0.508236  22.720   0.000
pair_coeff          4       5       0.200000   5.850    0.493530  23.400   0.000
pair_coeff          4       6       0.200000   5.090    0.500883  20.360   0.000
pair_coeff          4       7       0.200000   5.360    0.515589  21.440   0.000
pair_coeff          4       8       0.200000   5.930    0.574413  23.720   0.000
pair_coeff          4       9       0.200000   6.120    0.493530  24.480   0.000
pair_coeff          4      10       0.200000   6.070    0.662648  24.280   0.000
pair_coeff          4      11       0.200000   5.770    0.546472  23.080   0.000
pair_coeff          4      12       0.200000   5.620    0.593530  22.480   0.000
pair_coeff          4      13       0.200000   5.880    0.596471  23.520   0.000
pair_coeff          4      14       0.200000   5.630    0.361178  22.520   0.000
pair_coeff          4      15       0.200000   6.020    0.625883  24.080   0.000
pair_coeff          5       5       0.200000   6.020    0.478824  24.080   0.000
pair_coeff          5       6       0.200000   5.260    0.486177  21.040   0.000
pair_coeff          5       7       0.200000   5.530    0.500883  22.120   0.000
pair_coeff          5       8       0.200000   6.100    0.559707  24.400   0.000
pair_coeff          5       9       0.200000   6.290    0.478824  25.160   0.000
pair_coeff          5      10       0.200000   6.240    0.647942  24.960   0.000
pair_coeff          5      11       0.200000   5.940    0.531766  23.760   0.000
pair_coeff          5      12       0.200000   5.790    0.578824  23.160   0.000
pair_coeff          5      13       0.200000   6.050    0.581766  24.200   0.000
pair_coeff          5      14       0.200000   5.800    0.346471  23.200   0.000
pair_coeff          5      15       0.200000   6.190    0.611177  24.760   0.000
pair_coeff          6       6       0.200000   4.500    0.493530  18.000   0.000
pair_coeff          6       7       0.200000   4.770    0.508236  19.080   0.000
pair_coeff          6       8       0.200000   5.340    0.567060  21.360   0.000
pair_coeff          6       9       0.200000   5.530    0.486177  22.120   0.000
pair_coeff          6      10       0.200000   5.480    0.655295  21.920   0.000
pair_coeff          6      11       0.200000   5.180    0.539119  20.720   0.000
pair_coeff          6      12       0.200000   5.030    0.586177  20.120   0.000
pair_coeff          6      13       0.200000   5.290    0.589119  21.160   0.000
pair_coeff          6      14       0.200000   5.040    0.353824  20.160   0.000
pair_coeff          6      15       0.200000   5.430    0.618530  21.720   0.000
pair_coeff          7       7       0.200000   5.040    0.522942  20.160   0.000
pair_coeff          7       8       0.200000   5.610    0.581765  22.440   0.000
pair_coeff          7       9       0.200000   5.800    0.500883  23.200   0.000
pair_coeff          7      10       0.200000   5.750    0.670000  23.000   0.000
pair_coeff          7      11       0.200000   5.450    0.553824  21.800   0.000
pair_coeff          7      12       0.200000   5.300    0.600883  21.200   0.000
pair_coeff          7      13       0.200000   5.560    0.603825  22.240   0.000
pair_coeff          7      14       0.200000   5.310    0.368531  21.240   0.000
pair_coeff          7      15       0.200000   5.700    0.633236  22.800   0.000
pair_coeff          8       8       0.200000   6.180    0.640589  24.720   0.000
pair_coeff          8       9       0.200000   6.370    0.559707  25.480   0.000
pair_coeff          8      10       0.200000   6.320    0.728824  25.280   0.000
pair_coeff          8      11       0.200000   6.020    0.612648  24.080   0.000
pair_coeff          8      12       0.200000   5.870    0.659707  23.480   0.000
pair_coeff          8      13       0.200000   6.130    0.662648  24.520   0.000
pair_coeff          8      14       0.200000   5.880    0.427354  23.520   0.000
pair_coeff          8      15       0.200000   6.270    0.692060  25.080   0.000
pair_coeff          9       9       0.200000   6.560    0.478824  26.240  35.000
pair_coeff          9      10       0.200000   6.510    0.647942  26.040   0.000
pair_coeff          9      11       0.200000   6.210    0.531766  24.840   0.000
pair_coeff          9      12       0.200000   6.060    0.578824  24.240   0.000
pair_coeff          9      13       0.200000   6.320    0.581766  25.280   0.000
pair_coeff          9      14       0.200000   6.070    0.346471  24.280  35.000
pair_coeff          9      15       0.200000   6.460    0.611177  25.840   0.000
pair_coeff         10      10       0.200000   6.460    0.817059  25.840   0.000
pair_coeff         10      11       0.200000   6.160    0.700883  24.640   0.000
pair_coeff         10      12       0.200000   6.010    0.747942  24.040   0.000
pair_coeff         10      13       0.200000   6.270    0.750883  25.080   0.000
pair_coeff         10      14       0.200000   6.020    0.515589  24.080   0.000
pair_coeff         10      15       0.200000   6.410    0.780295  25.640   0.000
pair_coeff         11      11       0.200000   5.860    0.584707  23.440   0.000
pair_coeff         11      12       0.200000   5.710    0.631766  22.840   0.000
pair_coeff         11      13       0.200000   5.970    0.634707  23.880   0.000
pair_coeff         11      14       0.200000   5.720    0.399413  22.880   0.000
pair_coeff         11      15       0.200000   6.110    0.664119  24.440   0.000
pair_coeff         12      12       0.200000   5.560    0.678824  22.240   0.000
pair_coeff         12      13       0.200000   5.820    0.681765  23.280   0.000
pair_coeff         12      14       0.200000   5.570    0.446472  22.280   0.000
pair_coeff         12      15       0.200000   5.960    0.711177  23.840   0.000
pair_coeff         13      13       0.200000   6.080    0.684707  24.320   0.000
pair_coeff         13      14       0.200000   5.830    0.449413  23.320   0.000
pair_coeff         13      15       0.200000   6.220    0.714119  24.880   0.000
pair_coeff         14      14       0.200000   5.580    0.214119  22.320  35.000
pair_coeff         14      15       0.200000   5.970    0.478825  23.880   0.000
pair_coeff         15      15       0.200000   6.360    0.743530  25.440   0.000

special_bonds lj/coul 0.0 1.0 1.0

neighbor    3.5 multi
neigh_modify  every 10 delay 0

### Time step
reset_timestep  0
timestep        ${dt}

### Ensemble/thermostat
fix         1 all nvt/sllod temp $t $t 100
fix         2 all deform 1 xy erate ${shearrate} units box remap v

### System drift removal
fix         COMRemoval all momentum 1 linear 1 1 1  
compute     COM all com 
fix 	    allCOMresults all ave/time 10000 1 10000 c_COM[1] c_COM[2] c_COM[3] file COM_Box/COM.dat mode scalar

### Outputting velocity profiles
compute     Layers_short all chunk/atom bin/1d y center 0.05 units reduced
fix         3 all ave/chunk 100 10000 1000000 Layers_short vx file profile_short.nemd
compute     Layers_long all chunk/atom bin/1d y center 0.05 units reduced
fix         4 all ave/chunk 1000 10000 10000000 Layers_long vx file profile_long.nemd

### Computing temperature after subtracting out the streaming velocity induced by the simulation box change in shape 
compute     usual all temp
compute     tilt all temp/deform

### Outputting useful information in the log file
thermo_style  custom step temp press vol evdwl ecoul ebond etotal pe ke v_Density lx ly lz cpu
thermo_modify temp tilt
thermo        ${thermointrv}

### Outputting viscosity and pxy values
fix           viscosityave all ave/time 1 25000 25000 v_viscosityINatmfs v_viscosityINPas v_viscosityINcP file viscosity.dat
fix           pressuretensor all ave/time 1 25000 25000 v_PXYINatm v_PXYINPa v_PXXINPa v_PYYINPa v_PZZINPa file pressuretensor.dat

### Saving the simulation snapshots in a trajectory file
dump        df all custom ${dumpintrv} dumpTraj/dump.traj.* id mol type q mass xu yu zu ix iy iz
dump_modify df sort id

restart 10000000 restartfiles/restart.*

### Specifying the runlength
run        ${runtime}

### Writing end configuration
write_data eqconf_NEMD_V2.data